c turning on binary mode checking
c parsing input formula with 2036 variables and 13331 clauses
c finished parsing, read 177525003 bytes from proof file
c detected empty clause; start verification via backward checking
c 11342 of 13331 clauses in core                            
c 1060671 of 1942431 lemmas in core using 81587284 resolution steps
c 0 RAT lemmas in core; 1187708 redundant literals in core lemmas
s VERIFIED
c verification time: 117.012 seconds
